; benchmark generated from python API
(set-info :status unknown)
(declare-fun cell_1_4 () Int)
(declare-fun cell_2_1 () Int)
(declare-fun cell_3_7 () Int)
(declare-fun cell_4_6 () Int)
(declare-fun cell_5_9 () Int)
(declare-fun cell_6_2 () Int)
(declare-fun cell_7_5 () Int)
(declare-fun cell_8_8 () Int)
(declare-fun cell_1_1 () Int)
(declare-fun cell_3_1 () Int)
(declare-fun cell_4_1 () Int)
(declare-fun cell_5_1 () Int)
(declare-fun cell_6_1 () Int)
(declare-fun cell_7_1 () Int)
(declare-fun cell_8_1 () Int)
(declare-fun cell_9_1 () Int)
(declare-fun cell_1_2 () Int)
(declare-fun cell_2_2 () Int)
(declare-fun cell_3_2 () Int)
(declare-fun cell_4_2 () Int)
(declare-fun cell_5_2 () Int)
(declare-fun cell_7_2 () Int)
(declare-fun cell_8_2 () Int)
(declare-fun cell_9_2 () Int)
(declare-fun cell_1_3 () Int)
(declare-fun cell_2_3 () Int)
(declare-fun cell_3_3 () Int)
(declare-fun cell_4_3 () Int)
(declare-fun cell_5_3 () Int)
(declare-fun cell_6_3 () Int)
(declare-fun cell_7_3 () Int)
(declare-fun cell_8_3 () Int)
(declare-fun cell_9_3 () Int)
(declare-fun cell_2_4 () Int)
(declare-fun cell_3_4 () Int)
(declare-fun cell_4_4 () Int)
(declare-fun cell_5_4 () Int)
(declare-fun cell_6_4 () Int)
(declare-fun cell_7_4 () Int)
(declare-fun cell_8_4 () Int)
(declare-fun cell_9_4 () Int)
(declare-fun cell_1_5 () Int)
(declare-fun cell_2_5 () Int)
(declare-fun cell_3_5 () Int)
(declare-fun cell_4_5 () Int)
(declare-fun cell_5_5 () Int)
(declare-fun cell_6_5 () Int)
(declare-fun cell_8_5 () Int)
(declare-fun cell_9_5 () Int)
(declare-fun cell_1_6 () Int)
(declare-fun cell_2_6 () Int)
(declare-fun cell_3_6 () Int)
(declare-fun cell_5_6 () Int)
(declare-fun cell_6_6 () Int)
(declare-fun cell_7_6 () Int)
(declare-fun cell_8_6 () Int)
(declare-fun cell_9_6 () Int)
(declare-fun cell_1_7 () Int)
(declare-fun cell_2_7 () Int)
(declare-fun cell_4_7 () Int)
(declare-fun cell_5_7 () Int)
(declare-fun cell_6_7 () Int)
(declare-fun cell_7_7 () Int)
(declare-fun cell_8_7 () Int)
(declare-fun cell_9_7 () Int)
(declare-fun cell_1_8 () Int)
(declare-fun cell_2_8 () Int)
(declare-fun cell_3_8 () Int)
(declare-fun cell_4_8 () Int)
(declare-fun cell_5_8 () Int)
(declare-fun cell_6_8 () Int)
(declare-fun cell_7_8 () Int)
(declare-fun cell_9_8 () Int)
(declare-fun cell_1_9 () Int)
(declare-fun cell_2_9 () Int)
(declare-fun cell_3_9 () Int)
(declare-fun cell_4_9 () Int)
(declare-fun cell_6_9 () Int)
(declare-fun cell_7_9 () Int)
(declare-fun cell_8_9 () Int)
(declare-fun cell_9_9 () Int)
(assert
 (= cell_1_4 1))
(assert
 (= cell_2_1 1))
(assert
 (= cell_3_7 1))
(assert
 (= cell_4_6 1))
(assert
 (= cell_5_9 1))
(assert
 (= cell_6_2 1))
(assert
 (= cell_7_5 1))
(assert
 (= cell_8_8 1))
(assert
 (let (($x3200 (= cell_1_1 9)))
 (let (($x10337 (= cell_1_1 8)))
 (let (($x4713 (= cell_1_1 7)))
 (let (($x2136 (= cell_1_1 6)))
 (let (($x1579 (= cell_1_1 5)))
 (let (($x5979 (= cell_1_1 4)))
 (let (($x2062 (= cell_1_1 3)))
 (let (($x8221 (= cell_1_1 2)))
 (let (($x815 (= cell_1_1 1)))
 (or $x815 $x8221 $x2062 $x5979 $x1579 $x2136 $x4713 $x10337 $x3200)))))))))))
(assert
 (let (($x8393 (= cell_2_1 1)))
 (or $x8393 (= cell_2_1 2) (= cell_2_1 3) (= cell_2_1 4) (= cell_2_1 5) (= cell_2_1 6) (= cell_2_1 7) (= cell_2_1 8) (= cell_2_1 9))))
(assert
 (let (($x10021 (= cell_3_1 9)))
 (let (($x5645 (= cell_3_1 8)))
 (let (($x9303 (= cell_3_1 7)))
 (let (($x1809 (= cell_3_1 6)))
 (let (($x1205 (= cell_3_1 5)))
 (let (($x3868 (= cell_3_1 4)))
 (let (($x6651 (= cell_3_1 3)))
 (let (($x8303 (= cell_3_1 2)))
 (let (($x136 (= cell_3_1 1)))
 (or $x136 $x8303 $x6651 $x3868 $x1205 $x1809 $x9303 $x5645 $x10021)))))))))))
(assert
 (let (($x9092 (= cell_4_1 9)))
 (let (($x8682 (= cell_4_1 8)))
 (let (($x5326 (= cell_4_1 7)))
 (let (($x6063 (= cell_4_1 6)))
 (let (($x7589 (= cell_4_1 5)))
 (let (($x9248 (= cell_4_1 4)))
 (let (($x6547 (= cell_4_1 3)))
 (let (($x148 (= cell_4_1 2)))
 (let (($x8467 (= cell_4_1 1)))
 (or $x8467 $x148 $x6547 $x9248 $x7589 $x6063 $x5326 $x8682 $x9092)))))))))))
(assert
 (let (($x2958 (= cell_5_1 9)))
 (let (($x2735 (= cell_5_1 8)))
 (let (($x6024 (= cell_5_1 7)))
 (let (($x2739 (= cell_5_1 6)))
 (let (($x3309 (= cell_5_1 5)))
 (let (($x1091 (= cell_5_1 4)))
 (let (($x4561 (= cell_5_1 3)))
 (let (($x7588 (= cell_5_1 2)))
 (let (($x3288 (= cell_5_1 1)))
 (or $x3288 $x7588 $x4561 $x1091 $x3309 $x2739 $x6024 $x2735 $x2958)))))))))))
(assert
 (let (($x7138 (= cell_6_1 9)))
 (let (($x9869 (= cell_6_1 8)))
 (let (($x3303 (= cell_6_1 7)))
 (let (($x3665 (= cell_6_1 6)))
 (let (($x9569 (= cell_6_1 5)))
 (let (($x5222 (= cell_6_1 4)))
 (let (($x1478 (= cell_6_1 3)))
 (let (($x8243 (= cell_6_1 2)))
 (let (($x5973 (= cell_6_1 1)))
 (or $x5973 $x8243 $x1478 $x5222 $x9569 $x3665 $x3303 $x9869 $x7138)))))))))))
(assert
 (let (($x6994 (= cell_7_1 9)))
 (let (($x6452 (= cell_7_1 8)))
 (let (($x5199 (= cell_7_1 7)))
 (let (($x6959 (= cell_7_1 6)))
 (let (($x3349 (= cell_7_1 5)))
 (let (($x5502 (= cell_7_1 4)))
 (let (($x8874 (= cell_7_1 3)))
 (let (($x3632 (= cell_7_1 2)))
 (let (($x5044 (= cell_7_1 1)))
 (or $x5044 $x3632 $x8874 $x5502 $x3349 $x6959 $x5199 $x6452 $x6994)))))))))))
(assert
 (let (($x2119 (= cell_8_1 9)))
 (let (($x6894 (= cell_8_1 8)))
 (let (($x8837 (= cell_8_1 7)))
 (let (($x8155 (= cell_8_1 6)))
 (let (($x8216 (= cell_8_1 5)))
 (let (($x5035 (= cell_8_1 4)))
 (let (($x1773 (= cell_8_1 3)))
 (let (($x5906 (= cell_8_1 2)))
 (let (($x4237 (= cell_8_1 1)))
 (or $x4237 $x5906 $x1773 $x5035 $x8216 $x8155 $x8837 $x6894 $x2119)))))))))))
(assert
 (let (($x8218 (= cell_9_1 1)))
 (or $x8218 (= cell_9_1 2) (= cell_9_1 3) (= cell_9_1 4) (= cell_9_1 5) (= cell_9_1 6) (= cell_9_1 7) (= cell_9_1 8) (= cell_9_1 9))))
(assert
 (let (($x8777 (= cell_1_2 9)))
 (let (($x1013 (= cell_1_2 8)))
 (let (($x7382 (= cell_1_2 7)))
 (let (($x3217 (= cell_1_2 6)))
 (let (($x2669 (= cell_1_2 5)))
 (let (($x7780 (= cell_1_2 4)))
 (let (($x2244 (= cell_1_2 3)))
 (let (($x9025 (= cell_1_2 2)))
 (let (($x366 (= cell_1_2 1)))
 (or $x366 $x9025 $x2244 $x7780 $x2669 $x3217 $x7382 $x1013 $x8777)))))))))))
(assert
 (let (($x4133 (= cell_2_2 9)))
 (let (($x147 (= cell_2_2 8)))
 (let (($x7320 (= cell_2_2 7)))
 (let (($x6912 (= cell_2_2 6)))
 (let (($x6711 (= cell_2_2 5)))
 (let (($x6137 (= cell_2_2 4)))
 (let (($x7549 (= cell_2_2 3)))
 (let (($x3657 (= cell_2_2 2)))
 (let (($x3666 (= cell_2_2 1)))
 (or $x3666 $x3657 $x7549 $x6137 $x6711 $x6912 $x7320 $x147 $x4133)))))))))))
(assert
 (let (($x48 (= cell_3_2 9)))
 (let (($x4185 (= cell_3_2 8)))
 (let (($x8692 (= cell_3_2 7)))
 (let (($x3674 (= cell_3_2 6)))
 (let (($x3061 (= cell_3_2 5)))
 (let (($x4448 (= cell_3_2 4)))
 (let (($x397 (= cell_3_2 3)))
 (let (($x8956 (= cell_3_2 2)))
 (let (($x9358 (= cell_3_2 1)))
 (or $x9358 $x8956 $x397 $x4448 $x3061 $x3674 $x8692 $x4185 $x48)))))))))))
(assert
 (let (($x1208 (= cell_4_2 9)))
 (let (($x73 (= cell_4_2 8)))
 (let (($x1213 (= cell_4_2 7)))
 (let (($x2877 (= cell_4_2 6)))
 (let (($x2500 (= cell_4_2 5)))
 (let (($x9113 (= cell_4_2 4)))
 (let (($x2185 (= cell_4_2 3)))
 (let (($x9956 (= cell_4_2 2)))
 (let (($x6109 (= cell_4_2 1)))
 (or $x6109 $x9956 $x2185 $x9113 $x2500 $x2877 $x1213 $x73 $x1208)))))))))))
(assert
 (let (($x1800 (= cell_5_2 9)))
 (let (($x5124 (= cell_5_2 8)))
 (let (($x4679 (= cell_5_2 7)))
 (let (($x4695 (= cell_5_2 6)))
 (let (($x3990 (= cell_5_2 5)))
 (let (($x3882 (= cell_5_2 4)))
 (let (($x6372 (= cell_5_2 3)))
 (let (($x6071 (= cell_5_2 2)))
 (let (($x2387 (= cell_5_2 1)))
 (or $x2387 $x6071 $x6372 $x3882 $x3990 $x4695 $x4679 $x5124 $x1800)))))))))))
(assert
 (let (($x2424 (= cell_6_2 1)))
 (or $x2424 (= cell_6_2 2) (= cell_6_2 3) (= cell_6_2 4) (= cell_6_2 5) (= cell_6_2 6) (= cell_6_2 7) (= cell_6_2 8) (= cell_6_2 9))))
(assert
 (let (($x7129 (= cell_7_2 9)))
 (let (($x2715 (= cell_7_2 8)))
 (let (($x2879 (= cell_7_2 7)))
 (let (($x1634 (= cell_7_2 6)))
 (let (($x3905 (= cell_7_2 5)))
 (let (($x5323 (= cell_7_2 4)))
 (let (($x1784 (= cell_7_2 3)))
 (let (($x5861 (= cell_7_2 2)))
 (let (($x7375 (= cell_7_2 1)))
 (or $x7375 $x5861 $x1784 $x5323 $x3905 $x1634 $x2879 $x2715 $x7129)))))))))))
(assert
 (let (($x3280 (= cell_8_2 9)))
 (let (($x7576 (= cell_8_2 8)))
 (let (($x4080 (= cell_8_2 7)))
 (let (($x3525 (= cell_8_2 6)))
 (let (($x8048 (= cell_8_2 5)))
 (let (($x5270 (= cell_8_2 4)))
 (let (($x2704 (= cell_8_2 3)))
 (let (($x9155 (= cell_8_2 2)))
 (let (($x9304 (= cell_8_2 1)))
 (or $x9304 $x9155 $x2704 $x5270 $x8048 $x3525 $x4080 $x7576 $x3280)))))))))))
(assert
 (let (($x1006 (= cell_9_2 1)))
 (or $x1006 (= cell_9_2 2) (= cell_9_2 3) (= cell_9_2 4) (= cell_9_2 5) (= cell_9_2 6) (= cell_9_2 7) (= cell_9_2 8) (= cell_9_2 9))))
(assert
 (let (($x3265 (= cell_1_3 9)))
 (let (($x7742 (= cell_1_3 8)))
 (let (($x9219 (= cell_1_3 7)))
 (let (($x9068 (= cell_1_3 6)))
 (let (($x4614 (= cell_1_3 5)))
 (let (($x699 (= cell_1_3 4)))
 (let (($x2002 (= cell_1_3 3)))
 (let (($x7566 (= cell_1_3 2)))
 (let (($x2073 (= cell_1_3 1)))
 (or $x2073 $x7566 $x2002 $x699 $x4614 $x9068 $x9219 $x7742 $x3265)))))))))))
(assert
 (let (($x5030 (= cell_2_3 1)))
 (or $x5030 (= cell_2_3 2) (= cell_2_3 3) (= cell_2_3 4) (= cell_2_3 5) (= cell_2_3 6) (= cell_2_3 7) (= cell_2_3 8) (= cell_2_3 9))))
(assert
 (let (($x135 (= cell_3_3 9)))
 (let (($x2035 (= cell_3_3 8)))
 (let (($x3652 (= cell_3_3 7)))
 (let (($x2763 (= cell_3_3 6)))
 (let (($x8916 (= cell_3_3 5)))
 (let (($x2602 (= cell_3_3 4)))
 (let (($x4890 (= cell_3_3 3)))
 (let (($x1935 (= cell_3_3 2)))
 (let (($x872 (= cell_3_3 1)))
 (or $x872 $x1935 $x4890 $x2602 $x8916 $x2763 $x3652 $x2035 $x135)))))))))))
(assert
 (let (($x3967 (= cell_4_3 9)))
 (let (($x533 (= cell_4_3 8)))
 (let (($x2928 (= cell_4_3 7)))
 (let (($x8176 (= cell_4_3 6)))
 (let (($x6867 (= cell_4_3 5)))
 (let (($x3377 (= cell_4_3 4)))
 (let (($x9447 (= cell_4_3 3)))
 (let (($x1645 (= cell_4_3 2)))
 (let (($x2655 (= cell_4_3 1)))
 (or $x2655 $x1645 $x9447 $x3377 $x6867 $x8176 $x2928 $x533 $x3967)))))))))))
(assert
 (let (($x2518 (= cell_5_3 9)))
 (let (($x1805 (= cell_5_3 8)))
 (let (($x1850 (= cell_5_3 7)))
 (let (($x2155 (= cell_5_3 6)))
 (let (($x7128 (= cell_5_3 5)))
 (let (($x4516 (= cell_5_3 4)))
 (let (($x7778 (= cell_5_3 3)))
 (let (($x4928 (= cell_5_3 2)))
 (let (($x2727 (= cell_5_3 1)))
 (or $x2727 $x4928 $x7778 $x4516 $x7128 $x2155 $x1850 $x1805 $x2518)))))))))))
(assert
 (let (($x3911 (= cell_6_3 1)))
 (or $x3911 (= cell_6_3 2) (= cell_6_3 3) (= cell_6_3 4) (= cell_6_3 5) (= cell_6_3 6) (= cell_6_3 7) (= cell_6_3 8) (= cell_6_3 9))))
(assert
 (let (($x6961 (= cell_7_3 9)))
 (let (($x6181 (= cell_7_3 8)))
 (let (($x940 (= cell_7_3 7)))
 (let (($x5587 (= cell_7_3 6)))
 (let (($x88 (= cell_7_3 5)))
 (let (($x9388 (= cell_7_3 4)))
 (let (($x2849 (= cell_7_3 3)))
 (let (($x3134 (= cell_7_3 2)))
 (let (($x9064 (= cell_7_3 1)))
 (or $x9064 $x3134 $x2849 $x9388 $x88 $x5587 $x940 $x6181 $x6961)))))))))))
(assert
 (let (($x9853 (= cell_8_3 9)))
 (let (($x2613 (= cell_8_3 8)))
 (let (($x7999 (= cell_8_3 7)))
 (let (($x9851 (= cell_8_3 6)))
 (let (($x7016 (= cell_8_3 5)))
 (let (($x6230 (= cell_8_3 4)))
 (let (($x7201 (= cell_8_3 3)))
 (let (($x8313 (= cell_8_3 2)))
 (let (($x4938 (= cell_8_3 1)))
 (or $x4938 $x8313 $x7201 $x6230 $x7016 $x9851 $x7999 $x2613 $x9853)))))))))))
(assert
 (let (($x7616 (= cell_9_3 1)))
 (or $x7616 (= cell_9_3 2) (= cell_9_3 3) (= cell_9_3 4) (= cell_9_3 5) (= cell_9_3 6) (= cell_9_3 7) (= cell_9_3 8) (= cell_9_3 9))))
(assert
 (let (($x8002 (= cell_1_4 1)))
 (or $x8002 (= cell_1_4 2) (= cell_1_4 3) (= cell_1_4 4) (= cell_1_4 5) (= cell_1_4 6) (= cell_1_4 7) (= cell_1_4 8) (= cell_1_4 9))))
(assert
 (let (($x7658 (= cell_2_4 1)))
 (or $x7658 (= cell_2_4 2) (= cell_2_4 3) (= cell_2_4 4) (= cell_2_4 5) (= cell_2_4 6) (= cell_2_4 7) (= cell_2_4 8) (= cell_2_4 9))))
(assert
 (let (($x4833 (= cell_3_4 9)))
 (let (($x9120 (= cell_3_4 8)))
 (let (($x1005 (= cell_3_4 7)))
 (let (($x8633 (= cell_3_4 6)))
 (let (($x7777 (= cell_3_4 5)))
 (let (($x1076 (= cell_3_4 4)))
 (let (($x4434 (= cell_3_4 3)))
 (let (($x9606 (= cell_3_4 2)))
 (let (($x5733 (= cell_3_4 1)))
 (or $x5733 $x9606 $x4434 $x1076 $x7777 $x8633 $x1005 $x9120 $x4833)))))))))))
(assert
 (let (($x2636 (= cell_4_4 9)))
 (let (($x3789 (= cell_4_4 8)))
 (let (($x7519 (= cell_4_4 7)))
 (let (($x5777 (= cell_4_4 6)))
 (let (($x1716 (= cell_4_4 5)))
 (let (($x5748 (= cell_4_4 4)))
 (let (($x3268 (= cell_4_4 3)))
 (let (($x9383 (= cell_4_4 2)))
 (let (($x8099 (= cell_4_4 1)))
 (or $x8099 $x9383 $x3268 $x5748 $x1716 $x5777 $x7519 $x3789 $x2636)))))))))))
(assert
 (let (($x1458 (= cell_5_4 9)))
 (let (($x8989 (= cell_5_4 8)))
 (let (($x6633 (= cell_5_4 7)))
 (let (($x4339 (= cell_5_4 6)))
 (let (($x7266 (= cell_5_4 5)))
 (let (($x2964 (= cell_5_4 4)))
 (let (($x790 (= cell_5_4 3)))
 (let (($x6526 (= cell_5_4 2)))
 (let (($x5863 (= cell_5_4 1)))
 (or $x5863 $x6526 $x790 $x2964 $x7266 $x4339 $x6633 $x8989 $x1458)))))))))))
(assert
 (let (($x4436 (= cell_6_4 1)))
 (or $x4436 (= cell_6_4 2) (= cell_6_4 3) (= cell_6_4 4) (= cell_6_4 5) (= cell_6_4 6) (= cell_6_4 7) (= cell_6_4 8) (= cell_6_4 9))))
(assert
 (let (($x1182 (= cell_7_4 9)))
 (let (($x8197 (= cell_7_4 8)))
 (let (($x6572 (= cell_7_4 7)))
 (let (($x1316 (= cell_7_4 6)))
 (let (($x2449 (= cell_7_4 5)))
 (let (($x9524 (= cell_7_4 4)))
 (let (($x5093 (= cell_7_4 3)))
 (let (($x8729 (= cell_7_4 2)))
 (let (($x5256 (= cell_7_4 1)))
 (or $x5256 $x8729 $x5093 $x9524 $x2449 $x1316 $x6572 $x8197 $x1182)))))))))))
(assert
 (let (($x7463 (= cell_8_4 9)))
 (let (($x9221 (= cell_8_4 8)))
 (let (($x7334 (= cell_8_4 7)))
 (let (($x4256 (= cell_8_4 6)))
 (let (($x1543 (= cell_8_4 5)))
 (let (($x8695 (= cell_8_4 4)))
 (let (($x971 (= cell_8_4 3)))
 (let (($x8725 (= cell_8_4 2)))
 (let (($x3822 (= cell_8_4 1)))
 (or $x3822 $x8725 $x971 $x8695 $x1543 $x4256 $x7334 $x9221 $x7463)))))))))))
(assert
 (let (($x5396 (= cell_9_4 1)))
 (or $x5396 (= cell_9_4 2) (= cell_9_4 3) (= cell_9_4 4) (= cell_9_4 5) (= cell_9_4 6) (= cell_9_4 7) (= cell_9_4 8) (= cell_9_4 9))))
(assert
 (let (($x1689 (= cell_1_5 9)))
 (let (($x7331 (= cell_1_5 8)))
 (let (($x7229 (= cell_1_5 7)))
 (let (($x7329 (= cell_1_5 6)))
 (let (($x9537 (= cell_1_5 5)))
 (let (($x8036 (= cell_1_5 4)))
 (let (($x4745 (= cell_1_5 3)))
 (let (($x8986 (= cell_1_5 2)))
 (let (($x8154 (= cell_1_5 1)))
 (or $x8154 $x8986 $x4745 $x8036 $x9537 $x7329 $x7229 $x7331 $x1689)))))))))))
(assert
 (let (($x6408 (= cell_2_5 9)))
 (let (($x9588 (= cell_2_5 8)))
 (let (($x301 (= cell_2_5 7)))
 (let (($x9761 (= cell_2_5 6)))
 (let (($x3721 (= cell_2_5 5)))
 (let (($x630 (= cell_2_5 4)))
 (let (($x9644 (= cell_2_5 3)))
 (let (($x3948 (= cell_2_5 2)))
 (let (($x8422 (= cell_2_5 1)))
 (or $x8422 $x3948 $x9644 $x630 $x3721 $x9761 $x301 $x9588 $x6408)))))))))))
(assert
 (let (($x4064 (= cell_3_5 9)))
 (let (($x2067 (= cell_3_5 8)))
 (let (($x982 (= cell_3_5 7)))
 (let (($x4286 (= cell_3_5 6)))
 (let (($x3679 (= cell_3_5 5)))
 (let (($x9586 (= cell_3_5 4)))
 (let (($x1992 (= cell_3_5 3)))
 (let (($x1305 (= cell_3_5 2)))
 (let (($x2867 (= cell_3_5 1)))
 (or $x2867 $x1305 $x1992 $x9586 $x3679 $x4286 $x982 $x2067 $x4064)))))))))))
(assert
 (let (($x6278 (= cell_4_5 9)))
 (let (($x9063 (= cell_4_5 8)))
 (let (($x4360 (= cell_4_5 7)))
 (let (($x9204 (= cell_4_5 6)))
 (let (($x10129 (= cell_4_5 5)))
 (let (($x4039 (= cell_4_5 4)))
 (let (($x7085 (= cell_4_5 3)))
 (let (($x7259 (= cell_4_5 2)))
 (let (($x856 (= cell_4_5 1)))
 (or $x856 $x7259 $x7085 $x4039 $x10129 $x9204 $x4360 $x9063 $x6278)))))))))))
(assert
 (let (($x5254 (= cell_5_5 9)))
 (let (($x6605 (= cell_5_5 8)))
 (let (($x6026 (= cell_5_5 7)))
 (let (($x9941 (= cell_5_5 6)))
 (let (($x1037 (= cell_5_5 5)))
 (let (($x3404 (= cell_5_5 4)))
 (let (($x4271 (= cell_5_5 3)))
 (let (($x2890 (= cell_5_5 2)))
 (let (($x3814 (= cell_5_5 1)))
 (or $x3814 $x2890 $x4271 $x3404 $x1037 $x9941 $x6026 $x6605 $x5254)))))))))))
(assert
 (let (($x2781 (= cell_6_5 9)))
 (let (($x750 (= cell_6_5 8)))
 (let (($x445 (= cell_6_5 7)))
 (let (($x9057 (= cell_6_5 6)))
 (let (($x2766 (= cell_6_5 5)))
 (let (($x9526 (= cell_6_5 4)))
 (let (($x8799 (= cell_6_5 3)))
 (let (($x7005 (= cell_6_5 2)))
 (let (($x512 (= cell_6_5 1)))
 (or $x512 $x7005 $x8799 $x9526 $x2766 $x9057 $x445 $x750 $x2781)))))))))))
(assert
 (let (($x7757 (= cell_7_5 1)))
 (or $x7757 (= cell_7_5 2) (= cell_7_5 3) (= cell_7_5 4) (= cell_7_5 5) (= cell_7_5 6) (= cell_7_5 7) (= cell_7_5 8) (= cell_7_5 9))))
(assert
 (let (($x6968 (= cell_8_5 9)))
 (let (($x1706 (= cell_8_5 8)))
 (let (($x1608 (= cell_8_5 7)))
 (let (($x8767 (= cell_8_5 6)))
 (let (($x1509 (= cell_8_5 5)))
 (let (($x7756 (= cell_8_5 4)))
 (let (($x1851 (= cell_8_5 3)))
 (let (($x2492 (= cell_8_5 2)))
 (let (($x5934 (= cell_8_5 1)))
 (or $x5934 $x2492 $x1851 $x7756 $x1509 $x8767 $x1608 $x1706 $x6968)))))))))))
(assert
 (let (($x5064 (= cell_9_5 1)))
 (or $x5064 (= cell_9_5 2) (= cell_9_5 3) (= cell_9_5 4) (= cell_9_5 5) (= cell_9_5 6) (= cell_9_5 7) (= cell_9_5 8) (= cell_9_5 9))))
(assert
 (let (($x395 (= cell_1_6 9)))
 (let (($x8863 (= cell_1_6 8)))
 (let (($x6288 (= cell_1_6 7)))
 (let (($x4573 (= cell_1_6 6)))
 (let (($x8858 (= cell_1_6 5)))
 (let (($x3327 (= cell_1_6 4)))
 (let (($x6594 (= cell_1_6 3)))
 (let (($x3461 (= cell_1_6 2)))
 (let (($x5749 (= cell_1_6 1)))
 (or $x5749 $x3461 $x6594 $x3327 $x8858 $x4573 $x6288 $x8863 $x395)))))))))))
(assert
 (let (($x6821 (= cell_2_6 9)))
 (let (($x8637 (= cell_2_6 8)))
 (let (($x8309 (= cell_2_6 7)))
 (let (($x2819 (= cell_2_6 6)))
 (let (($x3387 (= cell_2_6 5)))
 (let (($x6321 (= cell_2_6 4)))
 (let (($x5033 (= cell_2_6 3)))
 (let (($x2454 (= cell_2_6 2)))
 (let (($x5032 (= cell_2_6 1)))
 (or $x5032 $x2454 $x5033 $x6321 $x3387 $x2819 $x8309 $x8637 $x6821)))))))))))
(assert
 (let (($x4668 (= cell_3_6 9)))
 (let (($x7271 (= cell_3_6 8)))
 (let (($x5306 (= cell_3_6 7)))
 (let (($x9699 (= cell_3_6 6)))
 (let (($x8391 (= cell_3_6 5)))
 (let (($x9020 (= cell_3_6 4)))
 (let (($x8404 (= cell_3_6 3)))
 (let (($x8461 (= cell_3_6 2)))
 (let (($x10189 (= cell_3_6 1)))
 (or $x10189 $x8461 $x8404 $x9020 $x8391 $x9699 $x5306 $x7271 $x4668)))))))))))
(assert
 (let (($x7385 (= cell_4_6 1)))
 (or $x7385 (= cell_4_6 2) (= cell_4_6 3) (= cell_4_6 4) (= cell_4_6 5) (= cell_4_6 6) (= cell_4_6 7) (= cell_4_6 8) (= cell_4_6 9))))
(assert
 (let (($x7400 (= cell_5_6 9)))
 (let (($x5584 (= cell_5_6 8)))
 (let (($x7859 (= cell_5_6 7)))
 (let (($x9715 (= cell_5_6 6)))
 (let (($x9656 (= cell_5_6 5)))
 (let (($x1004 (= cell_5_6 4)))
 (let (($x6296 (= cell_5_6 3)))
 (let (($x8949 (= cell_5_6 2)))
 (let (($x8850 (= cell_5_6 1)))
 (or $x8850 $x8949 $x6296 $x1004 $x9656 $x9715 $x7859 $x5584 $x7400)))))))))))
(assert
 (let (($x5955 (= cell_6_6 1)))
 (or $x5955 (= cell_6_6 2) (= cell_6_6 3) (= cell_6_6 4) (= cell_6_6 5) (= cell_6_6 6) (= cell_6_6 7) (= cell_6_6 8) (= cell_6_6 9))))
(assert
 (let (($x5581 (= cell_7_6 1)))
 (or $x5581 (= cell_7_6 2) (= cell_7_6 3) (= cell_7_6 4) (= cell_7_6 5) (= cell_7_6 6) (= cell_7_6 7) (= cell_7_6 8) (= cell_7_6 9))))
(assert
 (let (($x8324 (= cell_8_6 9)))
 (let (($x1679 (= cell_8_6 8)))
 (let (($x3204 (= cell_8_6 7)))
 (let (($x7556 (= cell_8_6 6)))
 (let (($x272 (= cell_8_6 5)))
 (let (($x617 (= cell_8_6 4)))
 (let (($x5101 (= cell_8_6 3)))
 (let (($x603 (= cell_8_6 2)))
 (let (($x8207 (= cell_8_6 1)))
 (or $x8207 $x603 $x5101 $x617 $x272 $x7556 $x3204 $x1679 $x8324)))))))))))
(assert
 (let (($x665 (= cell_9_6 1)))
 (or $x665 (= cell_9_6 2) (= cell_9_6 3) (= cell_9_6 4) (= cell_9_6 5) (= cell_9_6 6) (= cell_9_6 7) (= cell_9_6 8) (= cell_9_6 9))))
(assert
 (let (($x5723 (= cell_1_7 9)))
 (let (($x4750 (= cell_1_7 8)))
 (let (($x491 (= cell_1_7 7)))
 (let (($x5901 (= cell_1_7 6)))
 (let (($x1157 (= cell_1_7 5)))
 (let (($x2901 (= cell_1_7 4)))
 (let (($x10001 (= cell_1_7 3)))
 (let (($x8117 (= cell_1_7 2)))
 (let (($x6041 (= cell_1_7 1)))
 (or $x6041 $x8117 $x10001 $x2901 $x1157 $x5901 $x491 $x4750 $x5723)))))))))))
(assert
 (let (($x9241 (= cell_2_7 9)))
 (let (($x959 (= cell_2_7 8)))
 (let (($x4020 (= cell_2_7 7)))
 (let (($x3861 (= cell_2_7 6)))
 (let (($x1104 (= cell_2_7 5)))
 (let (($x7371 (= cell_2_7 4)))
 (let (($x7649 (= cell_2_7 3)))
 (let (($x3177 (= cell_2_7 2)))
 (let (($x23 (= cell_2_7 1)))
 (or $x23 $x3177 $x7649 $x7371 $x1104 $x3861 $x4020 $x959 $x9241)))))))))))
(assert
 (let (($x2765 (= cell_3_7 1)))
 (or $x2765 (= cell_3_7 2) (= cell_3_7 3) (= cell_3_7 4) (= cell_3_7 5) (= cell_3_7 6) (= cell_3_7 7) (= cell_3_7 8) (= cell_3_7 9))))
(assert
 (let (($x10211 (= cell_4_7 9)))
 (let (($x6497 (= cell_4_7 8)))
 (let (($x7363 (= cell_4_7 7)))
 (let (($x342 (= cell_4_7 6)))
 (let (($x1894 (= cell_4_7 5)))
 (let (($x6124 (= cell_4_7 4)))
 (let (($x6222 (= cell_4_7 3)))
 (let (($x6793 (= cell_4_7 2)))
 (let (($x461 (= cell_4_7 1)))
 (or $x461 $x6793 $x6222 $x6124 $x1894 $x342 $x7363 $x6497 $x10211)))))))))))
(assert
 (let (($x176 (= cell_5_7 9)))
 (let (($x3715 (= cell_5_7 8)))
 (let (($x7541 (= cell_5_7 7)))
 (let (($x7961 (= cell_5_7 6)))
 (let (($x6435 (= cell_5_7 5)))
 (let (($x6330 (= cell_5_7 4)))
 (let (($x6336 (= cell_5_7 3)))
 (let (($x8175 (= cell_5_7 2)))
 (let (($x3194 (= cell_5_7 1)))
 (or $x3194 $x8175 $x6336 $x6330 $x6435 $x7961 $x7541 $x3715 $x176)))))))))))
(assert
 (let (($x8280 (= cell_6_7 1)))
 (or $x8280 (= cell_6_7 2) (= cell_6_7 3) (= cell_6_7 4) (= cell_6_7 5) (= cell_6_7 6) (= cell_6_7 7) (= cell_6_7 8) (= cell_6_7 9))))
(assert
 (let (($x5128 (= cell_7_7 9)))
 (let (($x5905 (= cell_7_7 8)))
 (let (($x1875 (= cell_7_7 7)))
 (let (($x8779 (= cell_7_7 6)))
 (let (($x6261 (= cell_7_7 5)))
 (let (($x958 (= cell_7_7 4)))
 (let (($x2292 (= cell_7_7 3)))
 (let (($x352 (= cell_7_7 2)))
 (let (($x3987 (= cell_7_7 1)))
 (or $x3987 $x352 $x2292 $x958 $x6261 $x8779 $x1875 $x5905 $x5128)))))))))))
(assert
 (let (($x2235 (= cell_8_7 9)))
 (let (($x2764 (= cell_8_7 8)))
 (let (($x2627 (= cell_8_7 7)))
 (let (($x869 (= cell_8_7 6)))
 (let (($x4726 (= cell_8_7 5)))
 (let (($x6110 (= cell_8_7 4)))
 (let (($x9282 (= cell_8_7 3)))
 (let (($x7287 (= cell_8_7 2)))
 (let (($x9783 (= cell_8_7 1)))
 (or $x9783 $x7287 $x9282 $x6110 $x4726 $x869 $x2627 $x2764 $x2235)))))))))))
(assert
 (let (($x9100 (= cell_9_7 1)))
 (or $x9100 (= cell_9_7 2) (= cell_9_7 3) (= cell_9_7 4) (= cell_9_7 5) (= cell_9_7 6) (= cell_9_7 7) (= cell_9_7 8) (= cell_9_7 9))))
(assert
 (let (($x406 (= cell_1_8 9)))
 (let (($x1114 (= cell_1_8 8)))
 (let (($x57 (= cell_1_8 7)))
 (let (($x3683 (= cell_1_8 6)))
 (let (($x213 (= cell_1_8 5)))
 (let (($x4409 (= cell_1_8 4)))
 (let (($x3673 (= cell_1_8 3)))
 (let (($x664 (= cell_1_8 2)))
 (let (($x3047 (= cell_1_8 1)))
 (or $x3047 $x664 $x3673 $x4409 $x213 $x3683 $x57 $x1114 $x406)))))))))))
(assert
 (let (($x7002 (= cell_2_8 9)))
 (let (($x16 (= cell_2_8 8)))
 (let (($x516 (= cell_2_8 7)))
 (let (($x7982 (= cell_2_8 6)))
 (let (($x4504 (= cell_2_8 5)))
 (let (($x8083 (= cell_2_8 4)))
 (let (($x43 (= cell_2_8 3)))
 (let (($x3633 (= cell_2_8 2)))
 (let (($x5421 (= cell_2_8 1)))
 (or $x5421 $x3633 $x43 $x8083 $x4504 $x7982 $x516 $x16 $x7002)))))))))))
(assert
 (let (($x9839 (= cell_3_8 9)))
 (let (($x7170 (= cell_3_8 8)))
 (let (($x80 (= cell_3_8 7)))
 (let (($x1357 (= cell_3_8 6)))
 (let (($x3620 (= cell_3_8 5)))
 (let (($x1635 (= cell_3_8 4)))
 (let (($x2811 (= cell_3_8 3)))
 (let (($x3760 (= cell_3_8 2)))
 (let (($x3098 (= cell_3_8 1)))
 (or $x3098 $x3760 $x2811 $x1635 $x3620 $x1357 $x80 $x7170 $x9839)))))))))))
(assert
 (let (($x2779 (= cell_4_8 9)))
 (let (($x8790 (= cell_4_8 8)))
 (let (($x3120 (= cell_4_8 7)))
 (let (($x862 (= cell_4_8 6)))
 (let (($x3703 (= cell_4_8 5)))
 (let (($x3081 (= cell_4_8 4)))
 (let (($x2621 (= cell_4_8 3)))
 (let (($x8795 (= cell_4_8 2)))
 (let (($x4778 (= cell_4_8 1)))
 (or $x4778 $x8795 $x2621 $x3081 $x3703 $x862 $x3120 $x8790 $x2779)))))))))))
(assert
 (let (($x5175 (= cell_5_8 9)))
 (let (($x2186 (= cell_5_8 8)))
 (let (($x7773 (= cell_5_8 7)))
 (let (($x7480 (= cell_5_8 6)))
 (let (($x1296 (= cell_5_8 5)))
 (let (($x5710 (= cell_5_8 4)))
 (let (($x10139 (= cell_5_8 3)))
 (let (($x1099 (= cell_5_8 2)))
 (let (($x2514 (= cell_5_8 1)))
 (or $x2514 $x1099 $x10139 $x5710 $x1296 $x7480 $x7773 $x2186 $x5175)))))))))))
(assert
 (let (($x1743 (= cell_6_8 9)))
 (let (($x8179 (= cell_6_8 8)))
 (let (($x1565 (= cell_6_8 7)))
 (let (($x7888 (= cell_6_8 6)))
 (let (($x8869 (= cell_6_8 5)))
 (let (($x6774 (= cell_6_8 4)))
 (let (($x8857 (= cell_6_8 3)))
 (let (($x8526 (= cell_6_8 2)))
 (let (($x691 (= cell_6_8 1)))
 (or $x691 $x8526 $x8857 $x6774 $x8869 $x7888 $x1565 $x8179 $x1743)))))))))))
(assert
 (let (($x7069 (= cell_7_8 9)))
 (let (($x4129 (= cell_7_8 8)))
 (let (($x2477 (= cell_7_8 7)))
 (let (($x8367 (= cell_7_8 6)))
 (let (($x4240 (= cell_7_8 5)))
 (let (($x414 (= cell_7_8 4)))
 (let (($x7257 (= cell_7_8 3)))
 (let (($x9544 (= cell_7_8 2)))
 (let (($x806 (= cell_7_8 1)))
 (or $x806 $x9544 $x7257 $x414 $x4240 $x8367 $x2477 $x4129 $x7069)))))))))))
(assert
 (let (($x9919 (= cell_8_8 1)))
 (or $x9919 (= cell_8_8 2) (= cell_8_8 3) (= cell_8_8 4) (= cell_8_8 5) (= cell_8_8 6) (= cell_8_8 7) (= cell_8_8 8) (= cell_8_8 9))))
(assert
 (let (($x8004 (= cell_9_8 1)))
 (or $x8004 (= cell_9_8 2) (= cell_9_8 3) (= cell_9_8 4) (= cell_9_8 5) (= cell_9_8 6) (= cell_9_8 7) (= cell_9_8 8) (= cell_9_8 9))))
(assert
 (let (($x5596 (= cell_1_9 9)))
 (let (($x2064 (= cell_1_9 8)))
 (let (($x9536 (= cell_1_9 7)))
 (let (($x859 (= cell_1_9 6)))
 (let (($x2802 (= cell_1_9 5)))
 (let (($x9442 (= cell_1_9 4)))
 (let (($x4942 (= cell_1_9 3)))
 (let (($x6236 (= cell_1_9 2)))
 (let (($x9583 (= cell_1_9 1)))
 (or $x9583 $x6236 $x4942 $x9442 $x2802 $x859 $x9536 $x2064 $x5596)))))))))))
(assert
 (let (($x1021 (= cell_2_9 9)))
 (let (($x8679 (= cell_2_9 8)))
 (let (($x6439 (= cell_2_9 7)))
 (let (($x8551 (= cell_2_9 6)))
 (let (($x878 (= cell_2_9 5)))
 (let (($x5137 (= cell_2_9 4)))
 (let (($x3841 (= cell_2_9 3)))
 (let (($x387 (= cell_2_9 2)))
 (let (($x5510 (= cell_2_9 1)))
 (or $x5510 $x387 $x3841 $x5137 $x878 $x8551 $x6439 $x8679 $x1021)))))))))))
(assert
 (let (($x4829 (= cell_3_9 9)))
 (let (($x4856 (= cell_3_9 8)))
 (let (($x6467 (= cell_3_9 7)))
 (let (($x726 (= cell_3_9 6)))
 (let (($x2282 (= cell_3_9 5)))
 (let (($x8867 (= cell_3_9 4)))
 (let (($x7075 (= cell_3_9 3)))
 (let (($x3558 (= cell_3_9 2)))
 (let (($x2549 (= cell_3_9 1)))
 (or $x2549 $x3558 $x7075 $x8867 $x2282 $x726 $x6467 $x4856 $x4829)))))))))))
(assert
 (let (($x8515 (= cell_4_9 9)))
 (let (($x3860 (= cell_4_9 8)))
 (let (($x8926 (= cell_4_9 7)))
 (let (($x8661 (= cell_4_9 6)))
 (let (($x6388 (= cell_4_9 5)))
 (let (($x435 (= cell_4_9 4)))
 (let (($x4510 (= cell_4_9 3)))
 (let (($x6972 (= cell_4_9 2)))
 (let (($x7599 (= cell_4_9 1)))
 (or $x7599 $x6972 $x4510 $x435 $x6388 $x8661 $x8926 $x3860 $x8515)))))))))))
(assert
 (let (($x1638 (= cell_5_9 1)))
 (or $x1638 (= cell_5_9 2) (= cell_5_9 3) (= cell_5_9 4) (= cell_5_9 5) (= cell_5_9 6) (= cell_5_9 7) (= cell_5_9 8) (= cell_5_9 9))))
(assert
 (let (($x3241 (= cell_6_9 1)))
 (or $x3241 (= cell_6_9 2) (= cell_6_9 3) (= cell_6_9 4) (= cell_6_9 5) (= cell_6_9 6) (= cell_6_9 7) (= cell_6_9 8) (= cell_6_9 9))))
(assert
 (let (($x1383 (= cell_7_9 9)))
 (let (($x2589 (= cell_7_9 8)))
 (let (($x442 (= cell_7_9 7)))
 (let (($x1554 (= cell_7_9 6)))
 (let (($x3695 (= cell_7_9 5)))
 (let (($x942 (= cell_7_9 4)))
 (let (($x58 (= cell_7_9 3)))
 (let (($x5409 (= cell_7_9 2)))
 (let (($x5363 (= cell_7_9 1)))
 (or $x5363 $x5409 $x58 $x942 $x3695 $x1554 $x442 $x2589 $x1383)))))))))))
(assert
 (let (($x4743 (= cell_8_9 1)))
 (or $x4743 (= cell_8_9 2) (= cell_8_9 3) (= cell_8_9 4) (= cell_8_9 5) (= cell_8_9 6) (= cell_8_9 7) (= cell_8_9 8) (= cell_8_9 9))))
(assert
 (let (($x3579 (= cell_9_9 1)))
 (or $x3579 (= cell_9_9 2) (= cell_9_9 3) (= cell_9_9 4) (= cell_9_9 5) (= cell_9_9 6) (= cell_9_9 7) (= cell_9_9 8) (= cell_9_9 9))))
(assert
 (and (distinct cell_1_1 cell_1_2 cell_1_3 cell_1_4 cell_1_5 cell_1_6 cell_1_7 cell_1_8 cell_1_9) true))
(assert
 (and (distinct cell_2_1 cell_2_2 cell_2_3 cell_2_4 cell_2_5 cell_2_6 cell_2_7 cell_2_8 cell_2_9) true))
(assert
 (and (distinct cell_3_1 cell_3_2 cell_3_3 cell_3_4 cell_3_5 cell_3_6 cell_3_7 cell_3_8 cell_3_9) true))
(assert
 (and (distinct cell_4_1 cell_4_2 cell_4_3 cell_4_4 cell_4_5 cell_4_6 cell_4_7 cell_4_8 cell_4_9) true))
(assert
 (and (distinct cell_5_1 cell_5_2 cell_5_3 cell_5_4 cell_5_5 cell_5_6 cell_5_7 cell_5_8 cell_5_9) true))
(assert
 (and (distinct cell_6_1 cell_6_2 cell_6_3 cell_6_4 cell_6_5 cell_6_6 cell_6_7 cell_6_8 cell_6_9) true))
(assert
 (and (distinct cell_7_1 cell_7_2 cell_7_3 cell_7_4 cell_7_5 cell_7_6 cell_7_7 cell_7_8 cell_7_9) true))
(assert
 (and (distinct cell_8_1 cell_8_2 cell_8_3 cell_8_4 cell_8_5 cell_8_6 cell_8_7 cell_8_8 cell_8_9) true))
(assert
 (and (distinct cell_9_1 cell_9_2 cell_9_3 cell_9_4 cell_9_5 cell_9_6 cell_9_7 cell_9_8 cell_9_9) true))
(assert
 (and (distinct cell_1_1 cell_2_1 cell_3_1 cell_4_1 cell_5_1 cell_6_1 cell_7_1 cell_8_1 cell_9_1) true))
(assert
 (and (distinct cell_1_2 cell_2_2 cell_3_2 cell_4_2 cell_5_2 cell_6_2 cell_7_2 cell_8_2 cell_9_2) true))
(assert
 (and (distinct cell_1_3 cell_2_3 cell_3_3 cell_4_3 cell_5_3 cell_6_3 cell_7_3 cell_8_3 cell_9_3) true))
(assert
 (and (distinct cell_1_4 cell_2_4 cell_3_4 cell_4_4 cell_5_4 cell_6_4 cell_7_4 cell_8_4 cell_9_4) true))
(assert
 (and (distinct cell_1_5 cell_2_5 cell_3_5 cell_4_5 cell_5_5 cell_6_5 cell_7_5 cell_8_5 cell_9_5) true))
(assert
 (and (distinct cell_1_6 cell_2_6 cell_3_6 cell_4_6 cell_5_6 cell_6_6 cell_7_6 cell_8_6 cell_9_6) true))
(assert
 (and (distinct cell_1_7 cell_2_7 cell_3_7 cell_4_7 cell_5_7 cell_6_7 cell_7_7 cell_8_7 cell_9_7) true))
(assert
 (and (distinct cell_1_8 cell_2_8 cell_3_8 cell_4_8 cell_5_8 cell_6_8 cell_7_8 cell_8_8 cell_9_8) true))
(assert
 (and (distinct cell_1_9 cell_2_9 cell_3_9 cell_4_9 cell_5_9 cell_6_9 cell_7_9 cell_8_9 cell_9_9) true))
(assert
 (and (distinct cell_1_1 cell_1_2 cell_1_3 cell_2_1 cell_2_2 cell_2_3 cell_3_1 cell_3_2 cell_3_3) true))
(assert
 (and (distinct cell_1_4 cell_1_5 cell_1_6 cell_2_4 cell_2_5 cell_2_6 cell_3_4 cell_3_5 cell_3_6) true))
(assert
 (and (distinct cell_1_7 cell_1_8 cell_1_9 cell_2_7 cell_2_8 cell_2_9 cell_3_7 cell_3_8 cell_3_9) true))
(assert
 (and (distinct cell_4_1 cell_4_2 cell_4_3 cell_5_1 cell_5_2 cell_5_3 cell_6_1 cell_6_2 cell_6_3) true))
(assert
 (and (distinct cell_4_4 cell_4_5 cell_4_6 cell_5_4 cell_5_5 cell_5_6 cell_6_4 cell_6_5 cell_6_6) true))
(assert
 (and (distinct cell_4_7 cell_4_8 cell_4_9 cell_5_7 cell_5_8 cell_5_9 cell_6_7 cell_6_8 cell_6_9) true))
(assert
 (and (distinct cell_7_1 cell_7_2 cell_7_3 cell_8_1 cell_8_2 cell_8_3 cell_9_1 cell_9_2 cell_9_3) true))
(assert
 (and (distinct cell_7_4 cell_7_5 cell_7_6 cell_8_4 cell_8_5 cell_8_6 cell_9_4 cell_9_5 cell_9_6) true))
(assert
 (and (distinct cell_7_7 cell_7_8 cell_7_9 cell_8_7 cell_8_8 cell_8_9 cell_9_7 cell_9_8 cell_9_9) true))
(assert
 (let (($x1215 (and (distinct cell_5_9 cell_6_8 cell_7_7 cell_8_6) true)))
 (let (($x2750 (and (distinct cell_2_9 cell_3_8 cell_4_7 cell_5_6 cell_6_5 cell_7_4 cell_8_3 cell_9_2) true)))
 (let (($x9490 (and (distinct cell_1_8 cell_2_7 cell_3_6 cell_4_5 cell_5_4 cell_6_3 cell_7_2 cell_8_1) true)))
 (let (($x7373 (and (distinct cell_1_5 cell_2_4 cell_3_3 cell_4_2) true)))
 (let (($x6341 (and (distinct cell_5_1 cell_6_2 cell_7_3 cell_8_4) true)))
 (let (($x3617 (and (distinct cell_2_1 cell_3_2 cell_4_3 cell_5_4 cell_6_5 cell_7_6 cell_8_7 cell_9_8) true)))
 (let (($x9480 (and (distinct cell_1_2 cell_2_3 cell_3_4 cell_4_5 cell_5_6 cell_6_7 cell_7_8 cell_8_9) true)))
 (let (($x2255 (and (distinct cell_1_5 cell_2_6 cell_3_7 cell_4_8) true)))
 (and $x2255 $x9480 $x3617 $x6341 $x7373 $x9490 $x2750 $x1215))))))))))
(assert
 (= cell_9_3 1))
(check-sat)
